
Gurobi 8.0.1 (mac64, Python) logging started Thu Oct 25 16:42:21 2018

Optimize a model with 4 rows, 12 columns and 39 nonzeros
Coefficient statistics:
  Matrix range     [1e+00, 2e+03]
  Objective range  [9e-01, 3e+00]
  Bounds range     [6e+01, 2e+03]
  RHS range        [6e+01, 2e+03]
Presolve removed 0 rows and 2 columns
Presolve time: 0.00s
Presolved: 4 rows, 10 columns, 37 nonzeros

Iteration    Objective       Primal Inf.    Dual Inf.      Time
       0    0.0000000e+00   1.472500e+02   0.000000e+00      0s
       4    1.1828861e+01   0.000000e+00   0.000000e+00      0s

Solved in 4 iterations and 0.01 seconds
Optimal objective  1.182886111e+01
Optimize a model with 5 rows, 12 columns and 41 nonzeros
Coefficient statistics:
  Matrix range     [1e+00, 2e+03]
  Objective range  [9e-01, 3e+00]
  Bounds range     [6e+01, 2e+03]
  RHS range        [6e+00, 2e+03]
Iteration    Objective       Primal Inf.    Dual Inf.      Time
       0    1.1828861e+01   5.698333e+01   0.000000e+00      0s

Solved in 0 iterations and 0.00 seconds
Infeasible model

Gurobi 8.0.1 (mac64, Python) logging started Thu Oct 25 17:02:53 2018

Optimize a model with 4 rows, 11 columns and 37 nonzeros
Coefficient statistics:
  Matrix range     [1e+00, 6e+02]
  Objective range  [9e-01, 3e+00]
  Bounds range     [6e+01, 4e+02]
  RHS range        [6e+01, 2e+03]
Presolve removed 0 rows and 1 columns
Presolve time: 0.00s
Presolved: 4 rows, 10 columns, 36 nonzeros

Iteration    Objective       Primal Inf.    Dual Inf.      Time
       0    0.0000000e+00   1.180000e+02   0.000000e+00      0s
       5    9.4126800e+00   0.000000e+00   0.000000e+00      0s

Solved in 5 iterations and 0.01 seconds
Optimal objective  9.412680024e+00
Optimize a model with 5 rows, 11 columns and 39 nonzeros
Coefficient statistics:
  Matrix range     [1e+00, 6e+02]
  Objective range  [9e-01, 3e+00]
  Bounds range     [6e+01, 4e+02]
  RHS range        [6e+00, 2e+03]
Iteration    Objective       Primal Inf.    Dual Inf.      Time
       0    9.4126800e+00   0.000000e+00   0.000000e+00      0s

Solved in 0 iterations and 0.00 seconds
Optimal objective  9.412680024e+00
